Route #1: 37 29 27 8 5 10 44
Route #2: 36 6 25 41
Route #3: 1 18 30 20 42 40
Route #4: 3 31 24 28 11 21 39 14 45 4
Route #5: 23 12 50 17 22 26 38 48 2
Route #6: 34 32 19 15 49 13 46 16 9
Route #7: 47 51 7 43 33 35
Cost 747
Time 0.072617
